A : Static Structural - Mechanical [Ansys Mechanical Enterprise] ((43.0, 4.0), (366.0, 5.0), (366.0, 22.0), (43.0, 21.0))
X ((1890.0, 5.0), (1912.0, 4.0), (1912.0, 18.0), (1891.0, 19.0))
Clipboard > [ Empty ]| Extend & Select By Convert - ((726.0, 29.0), (1124.0, 29.0), (1124.0, 48.0), (726.0, 48.0))
ne > ((30.0, 49.0), (275.0, 50.0), (275.0, 64.0), (30.0, 64.0))
Ansys ((1801.0, 60.0), (1913.0, 61.0), (1912.0, 93.0), (1801.0, 91.0))
Project* ((21.0, 72.0), (81.0, 73.0), (80.0, 86.0), (21.0, 85.0))
@Model (A4) ((36.0, 90.0), (122.0, 86.0), (123.0, 102.0), (36.0, 106.0))
2024 R1 ((1845.0, 95.0), (1910.0, 95.0), (1910.0, 114.0), (1845.0, 113.0))
] Geometry Imports ((72.0, 106.0), (174.0, 105.0), (174.0, 118.0), (72.0, 120.0))
Geometry ((72.0, 119.0), (136.0, 121.0), (136.0, 135.0), (71.0, 132.0))
STUDENT ((1804.0, 123.0), (1899.0, 123.0), (1899.0, 143.0), (1804.0, 143.0))
# .... Materials ((37.0, 138.0), (130.0, 137.0), (130.0, 149.0), (37.0, 151.0))
Coordinate Systems ((77.0, 153.0), (181.0, 154.0), (181.0, 166.0), (77.0, 164.0))
Mesh ((82.0, 168.0), (115.0, 168.0), (115.0, 177.0), (82.0, 177.0))
.4 777 Static Structural (A5) ((52.0, 182.0), (207.0, 184.0), (207.0, 198.0), (52.0, 196.0))
..... mi Analysis Settings ((72.0, 199.0), (196.0, 200.0), (195.0, 213.0), (72.0, 213.0))
Force ((92.0, 216.0), (138.0, 216.0), (138.0, 230.0), (92.0, 229.0))
......., Fixed Support ((69.0, 233.0), (179.0, 232.0), (179.0, 244.0), (69.0, 245.0))
-4 Solution (A6) ((60.0, 247.0), (185.0, 247.0), (185.0, 262.0), (60.0, 262.0))
+ Solution Information ((108.0, 263.0), (235.0, 264.0), (235.0, 278.0), (108.0, 277.0))
nsert ((204.0, 294.0), (233.0, 295.0), (232.0, 304.0), (204.0, 303.0))
Solve ((200.0, 317.0), (233.0, 319.0), (232.0, 330.0), (200.0, 328.0))
Suppress ((198.0, 343.0), (251.0, 344.0), (251.0, 354.0), (197.0, 353.0))
Duplicate Without Results ((196.0, 366.0), (338.0, 367.0), (338.0, 380.0), (196.0, 379.0))
Rename Based on Definition ((198.0, 392.0), (349.0, 393.0), (349.0, 406.0), (197.0, 405.0))
Duplicate ((201.0, 418.0), (253.0, 419.0), (253.0, 430.0), (201.0, 429.0))
Copy ((201.0, 443.0), (230.0, 443.0), (230.0, 455.0), (201.0, 454.0))
Cu ((197.0, 465.0), (218.0, 465.0), (217.0, 476.0), (197.0, 476.0))
Copy To Clipboard ((202.0, 490.0), (298.0, 490.0), (298.0, 501.0), (202.0, 500.0))
Clear Generated Data ((203.0, 515.0), (314.0, 516.0), (314.0, 527.0), (203.0, 525.0))
0,000 ((685.0, 517.0), (715.0, 517.0), (715.0, 529.0), (686.0, 529.0))
10,000 ((941.0, 515.0), (973.0, 514.0), (973.0, 529.0), (942.0, 530.0))
20,000 (mm) ((1198.0, 515.0), (1267.0, 516.0), (1267.0, 533.0), (1198.0, 531.0))
X ((172.0, 540.0), (191.0, 539.0), (191.0, 552.0), (172.0, 553.0))
Delete ((202.0, 540.0), (234.0, 542.0), (233.0, 552.0), (202.0, 551.0))
5,000 ((816.0, 545.0), (844.0, 544.0), (844.0, 557.0), (816.0, 557.0))
15,000 ((1071.0, 543.0), (1103.0, 542.0), (1104.0, 556.0), (1072.0, 557.0))
Rename ((194.0, 565.0), (245.0, 567.0), (244.0, 578.0), (193.0, 577.0))
F2 ((348.0, 567.0), (361.0, 566.0), (360.0, 577.0), (348.0, 578.0))
Group ((204.0, 591.0), (234.0, 592.0), (234.0, 602.0), (204.0, 601.0))
Ctrl+ ((329.0, 589.0), (352.0, 590.0), (351.0, 601.0), (328.0, 600.0))
Group Similar Objects ((198.0, 611.0), (316.0, 612.0), (316.0, 624.0), (197.0, 623.0))
Details of "Equivalent Stress" ((5.0, 642.0), (157.0, 643.0), (157.0, 657.0), (5.0, 655.0))
: 4 X ((400.0, 644.0), (448.0, 644.0), (448.0, 655.0), (400.0, 655.0))
E] |Scope ((4.0, 666.0), (50.0, 666.0), (50.0, 679.0), (4.0, 679.0))
Scoping Method ((20.0, 685.0), (105.0, 685.0), (105.0, 699.0), (20.0, 699.0))
Geometry Selection ((147.0, 684.0), (246.0, 686.0), (245.0, 699.0), (147.0, 697.0))
Geometry ((21.0, 700.0), (70.0, 700.0), (70.0, 715.0), (21.0, 715.0))
All Bodies ((150.0, 701.0), (198.0, 702.0), (198.0, 715.0), (150.0, 714.0))
Definition ((13.0, 721.0), (74.0, 722.0), (74.0, 734.0), (13.0, 733.0))
Type ((18.0, 739.0), (41.0, 738.0), (41.0, 750.0), (19.0, 752.0))
Equivalent (von-Mises) Stress ((143.0, 737.0), (293.0, 738.0), (293.0, 752.0), (143.0, 750.0))
By ((16.0, 757.0), (32.0, 757.0), (30.0, 769.0), (16.0, 769.0))
Time ((148.0, 757.0), (175.0, 757.0), (175.0, 767.0), (148.0, 767.0))
Display Time ((22.0, 776.0), (101.0, 778.0), (101.0, 788.0), (22.0, 786.0))
Last ((150.0, 777.0), (168.0, 777.0), (167.0, 786.0), (149.0, 787.0))
Separate Data by Entity ((21.0, 793.0), (140.0, 793.0), (140.0, 805.0), (21.0, 804.0))
No ((146.0, 791.0), (164.0, 792.0), (163.0, 804.0), (145.0, 805.0))
Calculate Time History ((18.0, 810.0), (137.0, 811.0), (136.0, 824.0), (17.0, 822.0))
Yes ((147.0, 812.0), (162.0, 813.0), (161.0, 823.0), (146.0, 823.0))
Identifier ((18.0, 830.0), (69.0, 829.0), (69.0, 842.0), (18.0, 842.0))
Suppressed ((20.0, 846.0), (82.0, 848.0), (81.0, 859.0), (19.0, 857.0))
No ((148.0, 849.0), (161.0, 848.0), (159.0, 859.0), (148.0, 859.0))
- Integration Point Results ((4.0, 864.0), (146.0, 867.0), (146.0, 878.0), (4.0, 875.0))
Display Option ((20.0, 883.0), (96.0, 883.0), (96.0, 895.0), (20.0, 895.0))
Averaged ((146.0, 884.0), (196.0, 885.0), (196.0, 896.0), (146.0, 895.0))
Average Across Bodies ((20.0, 901.0), (140.0, 901.0), (140.0, 914.0), (20.0, 913.0))
No ((144.0, 903.0), (161.0, 903.0), (159.0, 912.0), (143.0, 912.0))
Results ((18.0, 920.0), (58.0, 919.0), (58.0, 930.0), (18.0, 931.0))
Minimum ((29.0, 936.0), (84.0, 937.0), (84.0, 948.0), (29.0, 947.0))
Maximum ((21.0, 955.0), (85.0, 957.0), (85.0, 967.0), (21.0, 966.0))
1, ((1880.0, 974.0), (1891.0, 975.0), (1890.0, 986.0), (1881.0, 986.0))
Average ((37.0, 976.0), (76.0, 977.0), (76.0, 986.0), (37.0, 985.0))
Minimum Occurs On ((21.0, 992.0), (123.0, 992.0), (123.0, 1002.0), (21.0, 1002.0))
U No Messages ((1401.0, 1015.0), (1497.0, 1019.0), (1496.0, 1030.0), (1400.0, 1027.0))
No Selection ((1502.0, 1017.0), (1575.0, 1018.0), (1575.0, 1029.0), (1502.0, 1028.0))
Metric (mm, kg, N, s, mV, mA) Degrees rad/s ((1590.0, 1016.0), (1868.0, 1016.0), (1868.0, 1029.0), (1590.0, 1029.0))
Celsius ((1869.0, 1016.0), (1915.0, 1017.0), (1914.0, 1029.0), (1869.0, 1027.0))
Q Search ((530.0, 1049.0), (595.0, 1049.0), (595.0, 1062.0), (530.0, 1062.0))
P ((1061.0, 1049.0), (1076.0, 1048.0), (1074.0, 1058.0), (1061.0, 1059.0))
W ((1191.0, 1046.0), (1212.0, 1045.0), (1211.0, 1062.0), (1191.0, 1063.0))
X ((1286.0, 1048.0), (1302.0, 1047.0), (1300.0, 1062.0), (1285.0, 1063.0))
× ((1324.0, 1046.0), (1349.0, 1045.0), (1349.0, 1065.0), (1323.0, 1065.0))
A ((1674.0, 1047.0), (1706.0, 1047.0), (1705.0, 1064.0), (1674.0, 1064.0))
한 ((1713.0, 1047.0), (1740.0, 1047.0), (1738.0, 1062.0), (1712.0, 1062.0))
15:16 27 ((1845.0, 1040.0), (1901.0, 1046.0), (1899.0, 1061.0), (1844.0, 1054.0))
10 ((1732.0, 1048.0), (1732.0, 1061.0), (1723.0, 1060.0), (1724.0, 1047.0))
07/05/2024 ((1811.0, 1056.0), (1881.0, 1057.0), (1881.0, 1070.0), (1811.0, 1069.0))
