A : Static Structural - Mechanical [Ansys Mechanical Enterprise] ((43.0, 4.0), (365.0, 5.0), (365.0, 22.0), (43.0, 21.0))
X ((1890.0, 5.0), (1912.0, 4.0), (1912.0, 18.0), (1891.0, 19.0))
QQQQQQQ Select " Mode F 6 4 ((23.0, 29.0), (608.0, 29.0), (608.0, 47.0), (23.0, 46.0))
Clipboard > [ Empty ]| Extend & Select By Convert - ((726.0, 29.0), (1124.0, 29.0), (1124.0, 48.0), (726.0, 48.0))
Outline >> ((6.0, 50.0), (275.0, 51.0), (275.0, 63.0), (6.0, 62.0))
Ansys ((1801.0, 60.0), (1913.0, 61.0), (1912.0, 93.0), (1801.0, 91.0))
Project* ((21.0, 72.0), (81.0, 72.0), (81.0, 86.0), (21.0, 85.0))
Model (A4) ((36.0, 90.0), (122.0, 86.0), (123.0, 102.0), (36.0, 107.0))
Geometry Imports ((79.0, 104.0), (174.0, 105.0), (174.0, 119.0), (79.0, 118.0))
2024 R1 ((1845.0, 95.0), (1910.0, 95.0), (1910.0, 114.0), (1845.0, 113.0))
Geometry ((72.0, 119.0), (134.0, 122.0), (133.0, 134.0), (72.0, 131.0))
STUDENT ((1804.0, 123.0), (1899.0, 123.0), (1899.0, 143.0), (1804.0, 143.0))
+ ..... Materials ((37.0, 139.0), (130.0, 137.0), (130.0, 148.0), (37.0, 151.0))
Coordinate Systems ((77.0, 153.0), (180.0, 153.0), (180.0, 166.0), (77.0, 165.0))
Mesh ((82.0, 167.0), (115.0, 168.0), (115.0, 178.0), (82.0, 177.0))
-4 77 Static Structural (A5) ((53.0, 183.0), (206.0, 183.0), (206.0, 198.0), (53.0, 196.0))
..... IM Analysis Settings ((72.0, 200.0), (195.0, 199.0), (195.0, 213.0), (72.0, 213.0))
Force ((105.0, 216.0), (138.0, 217.0), (139.0, 228.0), (105.0, 227.0))
......., Fixed Support ((68.0, 233.0), (179.0, 232.0), (179.0, 244.0), (68.0, 246.0))
+Solution (A6) ((84.0, 244.0), (186.0, 248.0), (185.0, 264.0), (83.0, 261.0))
+ Solution Information ((108.0, 262.0), (237.0, 263.0), (237.0, 278.0), (108.0, 277.0))
Equivalent Stress ((115.0, 279.0), (224.0, 279.0), (224.0, 294.0), (115.0, 294.0))
0,000 ((686.0, 518.0), (715.0, 518.0), (715.0, 529.0), (687.0, 529.0))
10,000 ((941.0, 515.0), (973.0, 514.0), (973.0, 529.0), (942.0, 530.0))
20,000 (mm) ((1198.0, 515.0), (1267.0, 516.0), (1267.0, 533.0), (1198.0, 531.0))
5,000 ((816.0, 545.0), (844.0, 544.0), (844.0, 557.0), (816.0, 557.0))
15,000 ((1071.0, 543.0), (1103.0, 542.0), (1104.0, 556.0), (1072.0, 557.0))
Details of "Equivalent Stress" ((5.0, 642.0), (156.0, 642.0), (156.0, 656.0), (5.0, 657.0))
, 4 X ((400.0, 643.0), (448.0, 643.0), (448.0, 656.0), (400.0, 655.0))
E] Scope ((4.0, 666.0), (50.0, 666.0), (50.0, 679.0), (4.0, 679.0))
Scoping Method ((20.0, 684.0), (106.0, 684.0), (106.0, 699.0), (20.0, 699.0))
Geometry Selection ((144.0, 684.0), (246.0, 684.0), (246.0, 699.0), (144.0, 698.0))
Geometry ((22.0, 701.0), (68.0, 701.0), (69.0, 714.0), (22.0, 715.0))
All Bodies ((145.0, 700.0), (195.0, 702.0), (194.0, 716.0), (145.0, 714.0))
Definition ((13.0, 721.0), (75.0, 721.0), (75.0, 734.0), (13.0, 733.0))
Type ((18.0, 739.0), (41.0, 739.0), (41.0, 751.0), (18.0, 752.0))
Equivalent (von-Mises) Stress ((142.0, 737.0), (296.0, 738.0), (296.0, 751.0), (142.0, 750.0))
By ((16.0, 756.0), (32.0, 756.0), (31.0, 769.0), (16.0, 769.0))
Time ((147.0, 757.0), (176.0, 757.0), (175.0, 768.0), (147.0, 768.0))
Display Time ((22.0, 776.0), (101.0, 777.0), (101.0, 788.0), (22.0, 786.0))
Last ((150.0, 776.0), (168.0, 776.0), (167.0, 786.0), (148.0, 786.0))
Separate Data by Entity ((21.0, 793.0), (140.0, 793.0), (140.0, 806.0), (21.0, 805.0))
No ((145.0, 791.0), (163.0, 791.0), (162.0, 804.0), (145.0, 805.0))
Calculate Time History ((18.0, 810.0), (136.0, 811.0), (136.0, 824.0), (17.0, 823.0))
Yes ((146.0, 812.0), (162.0, 813.0), (161.0, 823.0), (146.0, 822.0))
Identifier ((18.0, 831.0), (67.0, 830.0), (67.0, 841.0), (18.0, 842.0))
Suppressed ((19.0, 847.0), (81.0, 848.0), (81.0, 860.0), (19.0, 859.0))
No ((148.0, 849.0), (161.0, 848.0), (160.0, 859.0), (147.0, 859.0))
- Integration Point Results ((4.0, 864.0), (146.0, 867.0), (146.0, 878.0), (4.0, 875.0))
Display Option ((20.0, 883.0), (96.0, 883.0), (96.0, 895.0), (20.0, 895.0))
Averaged ((147.0, 884.0), (196.0, 885.0), (196.0, 896.0), (146.0, 895.0))
Average Across Bodies ((20.0, 901.0), (140.0, 901.0), (140.0, 914.0), (20.0, 913.0))
No ((144.0, 903.0), (161.0, 903.0), (159.0, 912.0), (143.0, 912.0))
Results ((18.0, 919.0), (58.0, 919.0), (58.0, 931.0), (18.0, 931.0))
Minimum ((28.0, 936.0), (84.0, 937.0), (84.0, 948.0), (28.0, 947.0))
Maximum ((21.0, 954.0), (85.0, 956.0), (85.0, 967.0), (21.0, 966.0))
Average ((37.0, 976.0), (76.0, 977.0), (76.0, 986.0), (37.0, 985.0))
1, ((1880.0, 974.0), (1892.0, 975.0), (1891.0, 986.0), (1881.0, 986.0))
Minimum Occurs On ((20.0, 992.0), (124.0, 992.0), (124.0, 1002.0), (20.0, 1002.0))
U No Messages ((1401.0, 1015.0), (1497.0, 1019.0), (1496.0, 1030.0), (1400.0, 1027.0))
No Selection ((1502.0, 1017.0), (1576.0, 1018.0), (1576.0, 1029.0), (1502.0, 1028.0))
Metric (mm, kg, N, s, mV, mA) Degrees rad/s Celsius ((1590.0, 1016.0), (1914.0, 1016.0), (1914.0, 1029.0), (1590.0, 1028.0))
Q Search ((530.0, 1049.0), (595.0, 1049.0), (595.0, 1062.0), (530.0, 1062.0))
P ((1061.0, 1049.0), (1076.0, 1048.0), (1074.0, 1058.0), (1061.0, 1059.0))
W ((1191.0, 1046.0), (1212.0, 1045.0), (1211.0, 1062.0), (1191.0, 1063.0))
X ((1286.0, 1048.0), (1302.0, 1047.0), (1300.0, 1062.0), (1285.0, 1063.0))
× ((1324.0, 1046.0), (1349.0, 1045.0), (1349.0, 1065.0), (1323.0, 1065.0))
A ((1673.0, 1047.0), (1705.0, 1047.0), (1705.0, 1064.0), (1673.0, 1064.0))
한 ((1709.0, 1046.0), (1740.0, 1046.0), (1740.0, 1062.0), (1709.0, 1062.0))
15:15 ((1845.0, 1041.0), (1884.0, 1043.0), (1883.0, 1056.0), (1845.0, 1054.0))
07/05/2024 ((1811.0, 1056.0), (1881.0, 1058.0), (1880.0, 1071.0), (1811.0, 1069.0))
