- ((1837.0, 12.0), (1852.0, 11.0), (1852.0, 19.0), (1837.0, 20.0))
X ((1902.0, 6.0), (1916.0, 5.0), (1916.0, 18.0), (1902.0, 20.0))
Contex ((144.0, 11.0), (183.0, 12.0), (183.0, 22.0), (144.0, 21.0))
A : Static Structural - Mechanical [Ansys Mechanical Enterprise] ((208.0, 8.0), (525.0, 9.0), (525.0, 23.0), (208.0, 21.0))
Quick Launch ((1699.0, 32.0), (1772.0, 33.0), (1772.0, 44.0), (1699.0, 43.0))
? ((1900.0, 29.0), (1917.0, 29.0), (1918.0, 43.0), (1900.0, 43.0))
File ((22.0, 31.0), (48.0, 31.0), (48.0, 43.0), (22.0, 43.0))
Home ((81.0, 32.0), (120.0, 33.0), (119.0, 44.0), (81.0, 43.0))
Solution ((143.0, 32.0), (191.0, 33.0), (191.0, 46.0), (143.0, 44.0))
Display ((217.0, 33.0), (255.0, 35.0), (254.0, 46.0), (217.0, 44.0))
Selection ((278.0, 33.0), (333.0, 33.0), (333.0, 44.0), (278.0, 44.0))
Automation ((354.0, 33.0), (422.0, 34.0), (422.0, 45.0), (354.0, 44.0))
Add-ons ((447.0, 34.0), (497.0, 34.0), (497.0, 44.0), (447.0, 44.0))
Learning and Support ((521.0, 33.0), (637.0, 34.0), (637.0, 47.0), (521.0, 45.0))
X ((70.0, 60.0), (96.0, 60.0), (96.0, 79.0), (70.0, 78.0))
My Computer ((94.0, 56.0), (174.0, 59.0), (174.0, 72.0), (94.0, 70.0))
Named Selection ((381.0, 55.0), (489.0, 57.0), (488.0, 72.0), (381.0, 71.0))
Ec Commands []Images ((499.0, 55.0), (644.0, 56.0), (644.0, 72.0), (499.0, 71.0))
USER ((1074.0, 74.0), (1104.0, 74.0), (1103.0, 86.0), (1073.0, 85.0))
Distributed ((99.0, 77.0), (182.0, 80.0), (182.0, 95.0), (99.0, 92.0))
Coordinate System (Comment ((368.0, 78.0), (572.0, 79.0), (572.0, 92.0), (368.0, 91.0))
ta Section Plane ((577.0, 77.0), (671.0, 79.0), (671.0, 93.0), (576.0, 91.0))
Probe ((1347.0, 93.0), (1383.0, 94.0), (1382.0, 104.0), (1347.0, 102.0))
Write Input Read Result ((1449.0, 92.0), (1581.0, 95.0), (1581.0, 106.0), (1449.0, 103.0))
Worksheet | Graph ((1591.0, 92.0), (1695.0, 93.0), (1694.0, 105.0), (1591.0, 103.0))
Tabular ((1695.0, 92.0), (1737.0, 91.0), (1737.0, 103.0), (1695.0, 103.0))
Duplicate Q ((20.0, 93.0), (92.0, 94.0), (92.0, 106.0), (19.0, 104.0))
Cores 4 ((100.0, 98.0), (148.0, 101.0), (148.0, 114.0), (100.0, 111.0))
Solve ((229.0, 91.0), (255.0, 92.0), (256.0, 105.0), (230.0, 104.0))
Resource ((265.0, 95.0), (320.0, 97.0), (319.0, 106.0), (264.0, 104.0))
Analysis ((328.0, 92.0), (376.0, 93.0), (375.0, 105.0), (328.0, 104.0))
Deformation Strain Stress Energy Linearized Volume Coordinate ((680.0, 91.0), (1045.0, 93.0), (1045.0, 106.0), (680.0, 104.0))
Result Chant ((1121.0, 100.0), (1205.0, 107.0), (1204.0, 117.0), (1121.0, 110.0))
Primary Composite ((1226.0, 95.0), (1328.0, 93.0), (1328.0, 105.0), (1226.0, 107.0))
Toolbox ((1394.0, 94.0), (1446.0, 95.0), (1446.0, 105.0), (1394.0, 104.0))
IS Remote Point ((365.0, 95.0), (468.0, 100.0), (467.0, 113.0), (365.0, 109.0))
User Defined Python Line ((1051.0, 94.0), (1205.0, 94.0), (1205.0, 105.0), (1051.0, 104.0))
M Chart ((501.0, 98.0), (548.0, 98.0), (548.0, 111.0), (501.0, 111.0))
Annotation ((583.0, 100.0), (661.0, 100.0), (661.0, 112.0), (583.0, 112.0))
" Stress" ((867.0, 100.0), (932.0, 102.0), (932.0, 113.0), (867.0, 111.0))
SystemsY ((977.0, 103.0), (1037.0, 101.0), (1037.0, 111.0), (977.0, 112.0))
Result ((1067.0, 102.0), (1121.0, 101.0), (1121.0, 110.0), (1068.0, 112.0))
n Criterion ((1257.0, 100.0), (1324.0, 102.0), (1324.0, 113.0), (1257.0, 111.0))
Criterion Ch ((1222.0, 106.0), (1290.0, 108.0), (1289.0, 118.0), (1222.0, 116.0))
File ... ((1468.0, 104.0), (1512.0, 106.0), (1512.0, 115.0), (1468.0, 113.0))
Files ... ((1513.0, 104.0), (1571.0, 104.0), (1571.0, 116.0), (1513.0, 116.0))
Data ((1705.0, 103.0), (1738.0, 103.0), (1738.0, 111.0), (1705.0, 112.0))
Data ((1701.0, 107.0), (1734.0, 107.0), (1734.0, 116.0), (1701.0, 116.0))
Prediction ((262.0, 105.0), (319.0, 107.0), (319.0, 115.0), (262.0, 114.0))
Outlin ((37.0, 114.0), (67.0, 115.0), (67.0, 127.0), (38.0, 127.0))
Solve ((199.0, 118.0), (231.0, 118.0), (231.0, 129.0), (199.0, 128.0))
Insert ((487.0, 118.0), (523.0, 119.0), (523.0, 128.0), (487.0, 127.0))
Results ((840.0, 116.0), (890.0, 117.0), (889.0, 128.0), (840.0, 126.0))
User Defined Criteria ((1224.0, 117.0), (1329.0, 118.0), (1329.0, 128.0), (1224.0, 127.0))
Tools ((1488.0, 115.0), (1546.0, 115.0), (1546.0, 127.0), (1488.0, 125.0))
Views ((1651.0, 119.0), (1685.0, 120.0), (1685.0, 127.0), (1651.0, 126.0))
Outline *********************************************** 40Ã— ((12.0, 165.0), (456.0, 165.0), (456.0, 180.0), (12.0, 180.0))
QQ+ + +QQQQQ Select " Mode : " ~ Clipboard [Empty ] Extend Select By ((490.0, 166.0), (1496.0, 166.0), (1496.0, 184.0), (490.0, 183.0))
- Convert ((1503.0, 167.0), (1574.0, 169.0), (1574.0, 184.0), (1503.0, 182.0))
Name ((33.0, 191.0), (66.0, 191.0), (66.0, 202.0), (33.0, 201.0))
Search Outline ((119.0, 189.0), (216.0, 189.0), (215.0, 203.0), (119.0, 202.0))
Ansys ((1811.0, 198.0), (1921.0, 199.0), (1920.0, 229.0), (1811.0, 227.0))
V ((218.0, 190.0), (241.0, 190.0), (241.0, 199.0), (218.0, 199.0))
A: Static Structural ((480.0, 203.0), (591.0, 203.0), (591.0, 216.0), (480.0, 217.0))
Project ((16.0, 213.0), (87.0, 213.0), (86.0, 224.0), (16.0, 224.0))
Solution ((482.0, 219.0), (531.0, 219.0), (531.0, 234.0), (482.0, 233.0))
2024 R1 ((1854.0, 232.0), (1918.0, 232.0), (1918.0, 251.0), (1854.0, 250.0))
D Model (A4) ((41.0, 228.0), (129.0, 227.0), (129.0, 240.0), (42.0, 242.0))
Time: 1, 5 ((480.0, 233.0), (537.0, 235.0), (537.0, 248.0), (480.0, 245.0))
Geometry Imports ((69.0, 244.0), (179.0, 244.0), (179.0, 257.0), (69.0, 257.0))
15/02/2024 15:27 ((479.0, 249.0), (573.0, 248.0), (573.0, 261.0), (479.0, 262.0))
STUDENT ((1812.0, 260.0), (1905.0, 260.0), (1905.0, 280.0), (1812.0, 280.0))
Geometry ((74.0, 259.0), (138.0, 259.0), (138.0, 272.0), (74.0, 272.0))
Materials ((78.0, 276.0), (135.0, 277.0), (135.0, 289.0), (78.0, 289.0))
Coordinate Systems ((67.0, 290.0), (188.0, 292.0), (187.0, 306.0), (66.0, 303.0))
Mesh ((83.0, 306.0), (119.0, 306.0), (119.0, 320.0), (83.0, 319.0))
Static Structural (A5) ((83.0, 323.0), (212.0, 323.0), (212.0, 336.0), (83.0, 336.0))
Im! Analysis Settings ((98.0, 339.0), (197.0, 340.0), (197.0, 354.0), (98.0, 354.0))
Force ((108.0, 352.0), (145.0, 356.0), (144.0, 370.0), (107.0, 367.0))
Fixed Support ((111.0, 370.0), (187.0, 371.0), (187.0, 384.0), (111.0, 383.0))
Solution (46) ((97.0, 384.0), (194.0, 385.0), (193.0, 400.0), (97.0, 399.0))
1 Solution ((122.0, 403.0), (182.0, 403.0), (182.0, 416.0), (122.0, 417.0))
Insert ((213.0, 402.0), (244.0, 403.0), (242.0, 415.0), (212.0, 414.0))
Deformation ((422.0, 403.0), (490.0, 405.0), (490.0, 418.0), (422.0, 416.0))
.. , Equivale ((108.0, 419.0), (182.0, 421.0), (182.0, 436.0), (108.0, 434.0))
Equivale ((122.0, 433.0), (183.0, 435.0), (182.0, 448.0), (122.0, 446.0))
Evaluate All Results ((212.0, 426.0), (311.0, 426.0), (311.0, 440.0), (212.0, 440.0))
Strain ((420.0, 426.0), (453.0, 427.0), (453.0, 438.0), (420.0, 437.0))
+ ((1008.0, 426.0), (1023.0, 425.0), (1023.0, 439.0), (1007.0, 440.0))
Clear Generated Data ((214.0, 452.0), (325.0, 452.0), (325.0, 466.0), (214.0, 465.0))
Stress ((418.0, 449.0), (455.0, 450.0), (454.0, 461.0), (418.0, 460.0))
Equivalent (von-Mises) ((582.0, 448.0), (713.0, 450.0), (713.0, 465.0), (582.0, 464.0))
Rename ((214.0, 477.0), (256.0, 479.0), (256.0, 490.0), (213.0, 488.0))
F2 ((360.0, 478.0), (369.0, 478.0), (368.0, 488.0), (358.0, 489.0))
Energy ((421.0, 470.0), (457.0, 471.0), (457.0, 483.0), (421.0, 482.0))
Maxil Equivalent (von-Mises) ((591.0, 474.0), (754.0, 475.0), (754.0, 492.0), (591.0, 489.0))
Group All Similar Children ((212.0, 502.0), (347.0, 502.0), (347.0, 516.0), (212.0, 515.0))
Linearized Stress ((419.0, 492.0), (509.0, 492.0), (509.0, 505.0), (419.0, 505.0))
Midd ((566.0, 494.0), (630.0, 495.0), (629.0, 510.0), (566.0, 507.0))
Insert an Equivalent (von-Mises) Stress ((683.0, 496.0), (886.0, 496.0), (886.0, 511.0), (683.0, 510.0))
Stress Tool ((420.0, 516.0), (480.0, 518.0), (479.0, 532.0), (420.0, 529.0))
Minir ((590.0, 516.0), (626.0, 518.0), (625.0, 530.0), (590.0, 527.0))
object to determine the overall stress at each ((680.0, 511.0), (919.0, 512.0), (919.0, 526.0), (680.0, 525.0))
Open Solver Files Directory ((213.0, 527.0), (352.0, 528.0), (352.0, 541.0), (213.0, 540.0))
) element based on the Von-Mises criterion. ((665.0, 527.0), (904.0, 527.0), (904.0, 540.0), (665.0, 539.0))
Fatigu ((421.0, 541.0), (456.0, 543.0), (456.0, 555.0), (421.0, 553.0))
Maxi ((593.0, 539.0), (622.0, 542.0), (622.0, 552.0), (593.0, 549.0))
Worksheet: Result Summary ((211.0, 552.0), (358.0, 553.0), (357.0, 567.0), (211.0, 565.0))
Contact Tool ((420.0, 568.0), (491.0, 568.0), (490.0, 580.0), (420.0, 579.0))
Inten i Press F1 for help. ((590.0, 561.0), (747.0, 565.0), (747.0, 581.0), (590.0, 576.0))
Normal ((591.0, 581.0), (636.0, 584.0), (636.0, 597.0), (591.0, 595.0))
0,000 ((973.0, 579.0), (997.0, 579.0), (997.0, 591.0), (974.0, 592.0))
10,000 ((1182.0, 579.0), (1215.0, 578.0), (1216.0, 591.0), (1183.0, 592.0))
20,000 (mm) ((1392.0, 577.0), (1463.0, 578.0), (1463.0, 595.0), (1392.0, 594.0))
Bolt Tool ((424.0, 594.0), (467.0, 594.0), (467.0, 603.0), (424.0, 604.0))
Shear ((569.0, 604.0), (627.0, 606.0), (627.0, 618.0), (569.0, 617.0))
5,000 ((1077.0, 606.0), (1102.0, 603.0), (1103.0, 615.0), (1078.0, 616.0))
15,000 ((1285.0, 603.0), (1320.0, 603.0), (1321.0, 615.0), (1285.0, 616.0))
Fracture Tool ((417.0, 619.0), (492.0, 618.0), (492.0, 629.0), (417.0, 630.0))
Vector Principal ((592.0, 629.0), (677.0, 629.0), (677.0, 643.0), (592.0, 642.0))
Probe ((420.0, 644.0), (454.0, 645.0), (454.0, 654.0), (420.0, 654.0))
Error ((569.0, 654.0), (624.0, 655.0), (624.0, 666.0), (569.0, 666.0))
A ((551.0, 666.0), (552.0, 677.0), (546.0, 677.0), (546.0, 667.0))
Coordinate Systems ((421.0, 668.0), (525.0, 668.0), (525.0, 681.0), (421.0, 679.0))
Details of "Solution (A6) ((10.0, 676.0), (139.0, 676.0), (140.0, 691.0), (10.0, 692.0))
Membrane Stress ((570.0, 680.0), (686.0, 679.0), (686.0, 693.0), (570.0, 693.0))
E Adaptive Mesh Refinement ((8.0, 694.0), (169.0, 696.0), (169.0, 710.0), (8.0, 708.0))
Volume ((422.0, 694.0), (463.0, 695.0), (463.0, 705.0), (422.0, 704.0))
Bending Stress ((570.0, 701.0), (673.0, 700.0), (673.0, 714.0), (570.0, 715.0))
Max Refinement Loops ((21.0, 713.0), (141.0, 715.0), (141.0, 729.0), (21.0, 726.0))
1, ((156.0, 716.0), (171.0, 716.0), (169.0, 729.0), (155.0, 729.0))
User Defined Result ((420.0, 716.0), (531.0, 717.0), (530.0, 730.0), (420.0, 728.0))
Refinement Depth ((21.0, 732.0), (121.0, 732.0), (121.0, 746.0), (21.0, 746.0))
2 ((159.0, 731.0), (170.0, 732.0), (168.0, 746.0), (157.0, 746.0))
E|Information ((9.0, 750.0), (90.0, 750.0), (90.0, 763.0), (9.0, 763.0))
Python Result ((420.0, 743.0), (493.0, 743.0), (493.0, 754.0), (420.0, 756.0))
Status ((20.0, 769.0), (54.0, 770.0), (54.0, 781.0), (20.0, 780.0))
Post-processing Required ((161.0, 766.0), (294.0, 768.0), (294.0, 781.0), (161.0, 779.0))
User Defined Criteria ((422.0, 768.0), (534.0, 768.0), (534.0, 780.0), (422.0, 779.0))
MAPDL Elapsed Time ((27.0, 784.0), (149.0, 787.0), (148.0, 799.0), (27.0, 796.0))
2, 5 ((161.0, 787.0), (184.0, 788.0), (182.0, 799.0), (160.0, 799.0))
Ec ((397.0, 790.0), (412.0, 791.0), (412.0, 808.0), (397.0, 808.0))
Commands ((416.0, 792.0), (480.0, 792.0), (480.0, 804.0), (416.0, 804.0))
MAPDL Memory Used ((26.0, 802.0), (142.0, 805.0), (141.0, 820.0), (26.0, 816.0))
182, MB ((163.0, 802.0), (204.0, 802.0), (204.0, 815.0), (163.0, 815.0))
MAPDL Result File Size ((19.0, 821.0), (145.0, 823.0), (145.0, 837.0), (19.0, 834.0))
Python Code ((415.0, 815.0), (489.0, 815.0), (489.0, 827.0), (415.0, 828.0))
1,0625 MB ((157.0, 824.0), (215.0, 824.0), (215.0, 835.0), (157.0, 835.0))
] Post Processing ((16.0, 839.0), (105.0, 842.0), (105.0, 854.0), (16.0, 851.0))
Beam Section Results ((21.0, 857.0), (136.0, 860.0), (135.0, 874.0), (21.0, 871.0))
I No ((156.0, 856.0), (177.0, 857.0), (177.0, 869.0), (157.0, 868.0))
On Demand Stress/Strain | No ((22.0, 877.0), (179.0, 877.0), (179.0, 890.0), (22.0, 890.0))
0,625 ((1371.0, 955.0), (1404.0, 955.0), (1405.0, 968.0), (1372.0, 968.0))
0,75 ((1544.0, 954.0), (1571.0, 955.0), (1571.0, 968.0), (1545.0, 968.0))
0,875 ((1722.0, 954.0), (1751.0, 954.0), (1753.0, 968.0), (1723.0, 968.0))
1, ((1891.0, 958.0), (1899.0, 958.0), (1899.0, 968.0), (1893.0, 968.0))
0, ((497.0, 957.0), (506.0, 957.0), (505.0, 968.0), (496.0, 968.0))
0,125 ((669.0, 954.0), (701.0, 954.0), (702.0, 967.0), (670.0, 968.0))
0,25 ((846.0, 955.0), (870.0, 956.0), (870.0, 969.0), (846.0, 968.0))
0,375 ((1021.0, 954.0), (1052.0, 954.0), (1053.0, 967.0), (1022.0, 967.0))
0,5 ((1197.0, 954.0), (1215.0, 956.0), (1214.0, 971.0), (1196.0, 971.0))
[5] ((1193.0, 975.0), (1211.0, 977.0), (1210.0, 994.0), (1193.0, 992.0))
sed on the Von-Mises criterion. ((520.0, 1016.0), (680.0, 1016.0), (680.0, 1030.0), (520.0, 1030.0))
U No Messages ((1409.0, 1015.0), (1498.0, 1016.0), (1498.0, 1029.0), (1408.0, 1028.0))
No Selection ((1509.0, 1016.0), (1582.0, 1016.0), (1582.0, 1029.0), (1509.0, 1028.0))
Metric (mm, kg, N, s, mV, mA) ((1604.0, 1015.0), (1783.0, 1015.0), (1783.0, 1029.0), (1604.0, 1029.0))
Degrees rad/s ((1786.0, 1015.0), (1875.0, 1016.0), (1875.0, 1028.0), (1786.0, 1028.0))
Celsius ((1883.0, 1015.0), (1920.0, 1017.0), (1919.0, 1028.0), (1883.0, 1026.0))
Insert an Equivalent (von-Mises) Stress object to dete ((14.0, 1015.0), (294.0, 1016.0), (294.0, 1030.0), (14.0, 1029.0))
